! B97-3c Opt Freq CPCM(Water)
! PrintMOs

* xyz 2 1
C  -1.28432694480441278451 -0.57039483258166623347 0.49917095853842469166
C  0.13774259264532728864 -1.02927418087121957946 0.24105051976919494860
C  0.90900669432384328950 -0.07485072232536156556 -0.66212302461565819556
C  2.33562379738100300841 -0.55543283250315711452 -0.92398301816480798987
C  3.07782230334258999349 0.38262367645220846102 -1.87437795138083229673
C  4.51485584872453671323 -0.09506972374883904120 -2.10506398412066175752
O  5.10805412687127624594 0.55968701613695770458 -3.21659281487327630700
C  5.63755965311762174963 1.76939404515217901803 -3.23129589115274518107
C  5.94318265460967865010 2.61468082534445622755 -2.10830765838715761262
O  5.59903478453272995807 2.21172753402788435650 -0.88267137529610484314
C  5.98899212108455625270 2.94807068305337960368 0.25121515567733804231
C  5.63825410511768509991 2.19212268274679411562 1.53669317960187501448
C  4.12498936174442842884 2.02179965735947941852 1.66226774836917967626
C  6.35899339634911076047 0.84896844534361171064 1.60631775101889950896
C  6.58852887271180964746 3.84149733612136756733 -2.34712419707743880082
C  5.95239847210233019581 2.24462728476946438150 -4.51421079339897168836
C  6.60007888281414167864 3.43673254118318238781 -4.73187238923958819470
C  6.96243770482159796131 4.24329168559091485236 -3.64884187370141299667
C  7.83845547908844419993 5.36493749600760505558 -3.79410012109498850918
N  8.50660651403163825535 5.70647682958010005194 -2.74565247725553929214
N  9.42589736835771141443 6.67486678523245036132 -2.65675658592663532787
C  10.12588679042052319801 6.74918813129700545517 -1.47747221804617034913
C  11.15497257061548985746 7.73214503564593336193 -1.37826135025175910975
C  11.94047245705354320933 7.80665215967855008472 -0.26394509069575455840
C  12.98731049566669426554 8.72644505349786037129 0.01346894923511379565
C  13.33469314112857340149 9.79540626946331549618 -0.83758817567166943263
C  14.35515357249846601917 10.65360206759263839160 -0.50450691121360058400
O  14.75652189452697804484 11.70432596880411679763 -1.24835714626098814861
C  15.08379118348254799287 10.47016809967635886380 0.71269989686285517561
O  16.06141136587110196388 11.28398436033802809675 1.04066429943493687915
C  14.73684700507023848104 9.40664446841131329791 1.55726272397034160022
C  13.71692241531106581931 8.55981476804477026121 1.21580193551823678710
O  9.81480421323004748047 5.96901159093469413364 -0.54483737548863109268
H  -1.79880676065256395191 -1.27234370817231345896 1.14960286503386854839
H  -1.84328195576186804061 -0.49389178095258562395 -0.43262086680199757227
H  -1.29866881008756496207 0.41220518703314940057 0.96907286505927614506
H  0.11947442016964959777 -2.02555302943811588179 -0.21195239859414938266
H  0.66534538183460700811 -1.13746915147052152228 1.19448548333697535107
H  0.93331509014477997965 0.91754513383385138958 -0.20379354343491573598
H  0.38066903993041012466 0.02279532352170139317 -1.61359515726219227005
H  2.30339234252753888299 -1.55452443473603740820 -1.36148560173003430052
H  2.87547258193453458830 -0.62971819146628715824 0.02289582739610593679
H  3.08481734771483395718 1.39950472984532758858 -1.47495725536498190067
H  2.56507148084533609378 0.40373083241623825002 -2.83781238222673692917
H  4.50594909873484539276 -1.14760804930620130548 -2.40058382412785054072
H  5.11846400179484462001 0.01894489494247235048 -1.20268821606132947366
H  5.50355387528164552435 3.93289192008196675232 0.24973490695978575737
H  7.09880283203073325637 3.12429209978977562301 0.21191837816227093727
H  5.98870009246054113561 2.82055310112221624408 2.36174254051703691459
H  3.74236804146134227622 1.41573173059250101424 0.84675893213026365292
H  3.62299648607870139472 2.98622856318952401011 1.65044477242556841823
H  3.88886387570385361201 1.52869258184728851191 2.60029849396055690036
H  6.02247118348032994817 0.18254036459463593434 0.81631474317275287689
H  6.15428927240930967457 0.37081419649483776668 2.55931827380097765001
H  7.43545474302445352777 0.98005657035082793804 1.51772348906518139700
H  6.50420133621279461522 4.61242691249050995594 -1.58852768678258438051
H  5.68274529102566905436 1.60832450518597780409 -5.34223104173000784556
H  6.84766219469661496788 3.73873118452671615586 -5.73701273544165601947
H  7.97278183616738633788 5.84343356677120695508 -4.76053307340668574454
H  9.64010636778950846804 7.27953565055771356640 -3.44577246121918090438
H  11.24990926802281698826 8.42733376174179937834 -2.19778031920493210905
H  11.75525760168027922248 7.06010476707228207260 0.49916002206773657512
H  12.79489107326761043737 9.95454592764330570276 -1.75895100966198691950
H  14.24281248855318260382 11.80416023300956673836 -2.05923859747816484500
H  16.19621048054378675829 11.97602533321097695307 0.36942703384580549697
H  15.29462586582238969868 9.28455030013670068456 2.47161984220756769659
H  13.45934379706022099299 7.74535104660473106009 1.87461003953495808361
Zn 8.88689427582637847536 4.25596333605103271935 -1.20625501482305375056
*