! B97-3c Opt Freq CPCM(Water)
! PrintMOs

* xyz 2 1
C  1.81526870835074349841 -1.59943918329931067390 -4.36386155004963960380
C  3.08526249395304130729 -0.78064704690922137598 -4.25656943263909148811
C  3.24246083817460650778 -0.08931479776490770794 -2.91172013598108447852
C  4.52563138964451283641 0.73262022377764934866 -2.81237984610469027302
C  4.65029194754332841910 1.40680442061920807362 -1.44682552411486398114
C  5.93397933730279625308 2.22341279556151505403 -1.33522461494330535459
O  5.95042901046272465493 2.80232597715249776016 -0.03545370419004097856
C  6.93437686468949632257 3.52228189050546225403 0.46861096677463165427
C  8.14335877405179964228 3.91559418970064188059 -0.20267587441403089876
O  8.31453333436453156935 3.51201928312576994173 -1.46596570568677697644
C  9.41421294567983935053 3.95088256100544565896 -2.23422563764201953518
C  9.22580732195487662750 3.46596516854472191937 -3.65930402088525408288
C  9.07850014354511003489 4.69113831884400678263 0.48861587456870225754
C  8.83880429076674722921 5.13576220761091128963 1.80309407360207396565
C  9.71169218713081860983 6.10889180751265215008 2.38034514554057752278
N  10.48204346356416394315 6.76508706447027829967 1.57964399037580371932
N  11.31768355019905669678 7.74948053554475624338 1.94743088651904638908
C  11.91073718444675577643 8.46583987372416224559 0.94243382815989185097
C  12.76888567870970447871 9.57454406179014583245 1.23607392428214191149
C  13.38624939741658970149 9.82659361151605459384 2.42197589129442780731
C  14.27641556566461389366 10.90986225943517951009 2.68997431502557349248
C  14.85503913325262459466 11.01051189738108604388 3.97114842459210048986
C  15.72324806870371816103 12.03132454745782631278 4.28115369854677485506
O  16.32958644523362323753 12.19805324957727066248 5.47244937466603786902
C  16.04349553349388557422 13.01752901879320312162 3.29795167468303418445
C  15.46108466331747699485 12.91919920982163283441 2.02604904931156948322
C  14.60112123730521638265 11.89615718197965144043 1.72927864767352512665
O  16.86807701060377340241 14.00297054452941836189 3.57307457121735794203
O  11.69519000877389025561 8.12667180485017404123 -0.24266566686998988778
C  7.67279252502824959947 4.71340211648031370828 2.45672672521373769428
C  6.75960284249314291571 3.92504173820825164043 1.80158939797837192032
H  1.74435766296053507141 -2.07273520219332363368 -5.33900893213566529738
H  0.93461227800339563565 -0.97463495402110311705 -4.21716052355941517504
H  1.78581129512186187469 -2.37592960619376958320 -3.59983344339922783917
H  3.10264270266196318104 -0.03283323983848053518 -5.05789817230667093639
H  3.95004326027204877292 -1.42881908469664331562 -4.43989150673689980664
H  3.23197339124078997230 -0.84027508676914264285 -2.11683601599856441311
H  2.38172601523042271054 0.56236106664252649701 -2.73755119145243552836
H  4.53132005220267952694 1.49339074800077153959 -3.59611596627586216357
H  5.38713440688809708234 0.08158517152998921718 -2.97666684241753332074
H  4.64573965681746603451 0.65179323123640364734 -0.65944683731791875481
H  3.79806941801829278660 2.06683577558707121113 -1.27953802918652415066
H  5.95499157521750532851 3.01187268082627079835 -2.09628396136386108140
H  6.81172065918179825417 1.58277549223939906220 -1.47389777586013792643
H  10.35029964613516995087 3.56318820967805915956 -1.81283034811950671816
H  9.46686755131584334322 5.06815453589193420925 -2.20128502838337736236
H  9.18609569698320882480 2.38018596405631832624 -3.68411438413423475424
H  10.05862008786293060325 3.79804168605879599596 -4.27109157594597999008
H  8.30311216879709945715 3.85754960994452922307 -4.07815857786660185269
H  10.08844619452914947999 4.74964730884909158704 0.10149702700919582821
H  9.66787409437582212490 6.31677600928752802645 3.44716108837726631364
H  11.41235429536008894047 8.01958657066282043502 2.92289229776838599406
H  12.99197030763813387466 10.17072236437568477641 0.36414658615781198003
H  13.21916087540099127295 9.15966541895328134615 3.25996354567531598789
H  14.62210857351220916200 10.26845435763827296682 4.72241555943967394882
H  16.09130113640921422302 11.51423159157009479259 6.11090097506995633125
H  15.71535923796772493688 13.67190310336690295401 1.29735743975235995329
H  14.17029044524338132760 11.85038407047814246198 0.74354676971282085418
H  17.20213549528639873643 13.95020032281452593281 4.48587370679569463761
H  7.48408445286169587973 5.02258132872715279404 3.47253102308139149912
H  5.85819136237865389916 3.59785426384626338958 2.29473806376873401547
Zn 9.90807152917486178012 7.15760410439643024461 -0.49721069290086944426
*