! B97-3c Opt Freq CPCM(Water)
! PrintMOs

* xyz 2 1
  C           9.43939446096386      0.04479175799025      0.56012000659363
  C           9.61340196926057     -1.34855548539694      0.63419078360402
  C          10.53831786590722      0.86316182289595      0.42221428902765
  C          11.83849306233575      0.32792638255366      0.35561597568485
  C          11.99292362166845     -1.06700089958102      0.43144666192434
  C          10.89568361345244     -1.88764525944017      0.56813727998387
  H          10.39666935356248      1.93505044722876      0.36594868987568
  H          11.00813653439561     -2.96093691547701      0.62732495735036
  H          12.97424026828902     -1.51485253019288      0.38419154577302
  O           8.15024500230056      0.47694547331960      0.63444087012842
  O           8.55645476592808     -2.17649377463928      0.76851090570282
  C          12.93591212293825      1.23646807596522      0.21825443712739
  C          14.25360307211414      0.92769577841500      0.14949593067592
  H          12.67204998338666      2.28633271050086      0.16858733208591
  C          15.24739311301981      1.94138406271508      0.02184572683032
  H          14.60380776324554     -0.09376209068548      0.19602801238831
  N          16.54256170849010      1.52986394320954     -0.00498636594685
  O          14.97645754933895      3.18635429642032     -0.06507919314821
  N          17.55051326496722      2.43485785471507     -0.13543032587657
  C          18.77450599091634      2.02007884159441     -0.05290490268080
  C          19.91931194955907      2.85705373725091     -0.27552615872516
  H          18.94579019469959      0.98025250329904      0.20184038498892
  C          19.88775867082078      3.98978421718215     -1.10041756433319
  C          21.02977030280530      4.73727713643658     -1.28925708574844
  C          22.20951940510197      4.37703316993297     -0.64809431604432
  C          22.28905636406425      3.25268205748868      0.16808604619371
  C          21.13471030905950      2.48125281396733      0.33292996166750
  H          23.09405568568878      4.98521405073016     -0.78073913755980
  H           8.11425378899750      1.44090727988914      0.58124028546571
  H           7.74295641798387     -1.64997752500870      0.80245545375476
  H          16.77824603933491      0.54874489564928      0.06429454934479
  H          21.01013657530661      5.59892264184974     -1.94091241128248
  H          18.98947014429380      4.24100159804903     -1.64651029080518
  O          21.12202988831129      1.39076490617940      1.15796196077438
  C          21.79199408807729      0.21237772606774      0.63485877800607
  C          21.96058114532491     -0.77365908717220      1.76056915832351
  H          22.74750731509414      0.50293673841344      0.20504224901168
  H          21.17514906569848     -0.20224678504154     -0.16649868081531
  C          22.53118957918808     -2.10987139316974      1.29850352008156
  H          20.98715462831113     -0.93510230398399      2.22697763739397
  H          22.61043320568592     -0.33667877042686      2.52165119990230
  C          23.94492334069283     -2.03665813321784      0.74017114999682
  H          21.86659870105312     -2.54924045004136      0.54961729423519
  H          22.52194086741627     -2.79441278559118      2.14941606367164
  C          24.53397093217645     -3.40210018442490      0.42154524114527
  H          24.59002297171399     -1.52423226453911      1.46032978119188
  H          23.96025905593585     -1.42711603802557     -0.16642116341213
  C          25.94273052767428     -3.32811878777624     -0.14289333953799
  H          23.88095481047774     -3.91658964350085     -0.28855850363631
  H          24.53408782040407     -4.01256699825178      1.32863621498582
  H          25.96562312154234     -2.75170183651270     -1.06866260501881
  H          26.33980635004956     -4.31953270840429     -0.36025866900227
  H          26.62265370508897     -2.84599292875665      0.56072798619076
  C          23.57296162560654      2.90642348534910      0.87756200796064
  C          24.31182530091221      4.10335756126112      1.38135721062711
  H          24.21927218111692      2.33308370900889      0.20997505521806
  H          23.33866277737522      2.25205814000267      1.71773503022573
  C          25.54903998540251      4.43239277213475      1.03253518976488
  H          23.77105085855729      4.72794364734369      2.08663388354188
  H          26.11552835556584      3.83825493876469      0.32496483177660
  H          26.04122986025529      5.30399472557166      1.44359775696268
  Zn         16.61821972934723      4.23818015262294     -0.17224209637505
*