! B97-3c Opt Freq CPCM(Water)
! PrintMOs

* xyz 2 1
  C          10.06568476506142      5.03992878551239      1.35583023730285
  C           9.51053371405153      3.85482087377568      0.84162091032570
  C          11.40533912936198      5.30218139205372      1.17293941979743
  C          12.23459229005657      4.39816089474545      0.48294975675303
  C          11.66160209636061      3.21961523119151     -0.02530476842371
  C          10.32198228215582      2.95639944207626      0.15326381437477
  H          11.82387844851539      6.21746773488349      1.57237784932932
  H           9.87585157528273      2.05333592579840     -0.23868370802580
  H          12.26398574170888      2.50693403049179     -0.56825565042501
  O           9.19513572466746      5.85463713611705      2.01416826146910
  O           8.20112395154965      3.57079035961771      1.00142827547414
  C          13.62066294281841      4.72464400901563      0.33816118683789
  C          14.58870698171375      3.95861776463661     -0.22131368434108
  H          13.92122247714614      5.68865976188111      0.73194515307414
  C          15.94061336653659      4.40130871865817     -0.29630959382710
  H          14.38068997568503      2.97495836071537     -0.61863454598570
  N          16.84349823605021      3.51562143604044     -0.82753515678678
  O          16.34038329266762      5.54452795553033      0.09298963748283
  N          18.10731779784372      3.93388881505014     -0.89895568987657
  C          19.13993444878371      3.28405173844833     -1.31551961693840
  C          20.37389161054039      4.03002316686443     -1.29724728800275
  H          19.09791051411595      2.23740654476411     -1.59704950849395
  C          20.33464053837539      5.44683735633697     -1.42330801748687
  C          21.45658139727220      6.22768825995403     -1.14489497773731
  C          22.64727245552776      5.58568665539324     -0.70009000673337
  C          22.69102365829048      4.19399686563909     -0.68032392256738
  C          21.57524172396235      3.42189522473656     -0.97809715312660
  H           9.64863926931892      6.64568089762260      2.33319686524753
  H           7.77897527229925      4.28679486064381      1.50072169625515
  H          16.57120968217060      2.60370484342306     -1.17254283006657
  H          19.60023659005116      5.90746471184642     -2.08168546715665
  H          21.63241509578422      2.34682806654034     -0.88389352493566
  O          23.65933561783406      6.38329408937772     -0.33514250536344
  C          24.92627488353993      5.79124096373569      0.02872012848659
  C          25.89639939070038      6.90742742293175      0.31570601359677
  H          25.27520209959279      5.16981887899168     -0.79723838750866
  H          24.78130851304395      5.15737179064722      0.90479127834301
  C          27.26111357385765      6.36872421551932      0.71967179985771
  H          25.49515768964345      7.53716119459710      1.11157854254567
  H          25.99264220190963      7.53468516021104     -0.57192337718482
  H          23.59664715989598      3.69387815828210     -0.37756113304975
  O          21.32175609749173      7.55057109292651     -1.32565914528019
  C          22.41306850346509      8.34992335027385     -1.83745807498984
  H          23.07117605772630      8.66623596751899     -1.03652572257301
  H          21.93693002344623      9.21123610196183     -2.29308320018650
  H          22.97339689688636      7.79915433840786     -2.58767398432003
  C          28.27871325249549      7.46663082160234      0.98475447844206
  H          27.63892353695496      5.71039562014705     -0.06714708311876
  H          27.15678559874530      5.74784737051317      1.61318303623958
  C          29.64545323620378      6.93636486639622      1.38935845386735
  H          27.90190077107011      8.12894803559109      1.76948428467091
  H          28.38289960740629      8.08598614045276      0.08937563355606
  C          30.66319171821431      8.03603494224985      1.64198840488463
  H          30.01576676518400      6.26827404762594      0.60715358621828
  H          29.53948240272154      6.32104962462981      2.28672374515175
  H          30.81176191130434      8.64578935669101      0.74992032652343
  H          31.63184549613593      7.62651375577878      1.92807556138904
  H          30.33526105302061      8.70023336358453      2.44271939407686
  Zn         18.31279713211319      5.81475805703095     -0.17271369447026
*