! B97-3c Opt Freq CPCM(Water)
! PrintMOs

* xyz 2 1
  O          -5.47191991952924    -10.15237878686666      0.74778648986228
  C          -4.61895254608156     -9.27798419235890      0.14814140077610
  C          -3.50363231685399     -9.87272006396247     -0.48053113125706
  O          -3.33513942766263    -11.21022524764646     -0.46402488535647
  C          -2.56891766229762     -9.07210241638731     -1.12311332975872
  C          -2.73264985926129     -7.70239653088722     -1.14416994951231
  C          -3.83649565238165     -7.09316836222260     -0.52473290440527
  C          -3.94751170984318     -5.66955190846177     -0.59135220321839
  C          -4.92870404042154     -4.88630305433457     -0.07886465864131
  C          -4.90134646255172     -3.47186032345584     -0.24747026903966
  N          -5.93642973606665     -2.76402960078515      0.29412352918429
  N          -5.96103400502028     -1.43892891443635      0.08278560801825
  C          -6.91886063008898     -0.67539385778025      0.48842340026022
  C          -6.93343015452286      0.72192804366097      0.13214548858318
  C          -8.18293763432307      1.36106681126553      0.05349148165628
  C          -8.31611251969189      2.62068796718317     -0.55485951723058
  C          -7.22626338427399      3.22894203561563     -1.10964695148801
  C          -5.93944317828643      2.65894931809965     -1.00725614445843
  C          -5.77985129656150      1.43440222639872     -0.30484777093182
  C          -4.43302495491321      0.99831156717231     -0.06071704641148
  C          -3.34509145375693      1.69628131751265     -0.58894976295964
  C          -3.53998191825921      2.81268091273205     -1.40039216319348
  C          -4.81269978649777      3.30766348450135     -1.55381382449202
  O          -9.23452384921344      0.66600326781784      0.52984156294028
  C         -10.54060623621764      1.21570406673061      0.43876424255213
  C         -11.49047478278094      0.18677604468810      1.01576082735264
  F         -11.21778267511619     -0.09809568095802      2.30809505254397
  F         -12.75323674571716      0.66431952785192      0.95662924303987
  F         -11.45895640525318     -0.97899013700033      0.33291009310199
  O          -3.97816450501781     -2.85546667908663     -0.87262154210393
  C          -4.77957848616827     -7.91321439258747      0.12460043320980
  H          -6.19879227389536     -9.67820633930888      1.17230032334628
  H          -4.06867682285181    -11.61636223909493      0.02329354856126
  H          -1.71981475065554     -9.54085860901554     -1.59951420111957
  H          -2.00078444049594     -7.08544149765494     -1.64682922122536
  H          -3.14718929483480     -5.16747631882860     -1.12187569232087
  H          -5.76919224048400     -5.29547431369609      0.46431924903416
  H          -6.69982920521841     -3.22549745610370      0.77346873384924
  H          -7.76615416173355     -1.10138295640008      1.01338142885841
  H          -9.28124586387768      3.09485975119983     -0.62744172829305
  H          -7.34220994766023      4.16962394098717     -1.62938964151952
  H          -4.24623669867344      0.38130309743531      0.81649091285972
  H          -2.34579229201891      1.38177754280100     -0.32281030413185
  H          -2.69454356904070      3.32597897790349     -1.83345001324543
  H          -4.97104248112763      4.22853942801003     -2.09907014907421
  H         -10.82614921286534      1.40020805983870     -0.59546420056224
  H         -10.63124015007301      2.13270355317927      1.01850745587446
  H          -5.64349673998680     -7.48571604828156      0.61518482242309
  Zn         -4.28122879250368     -0.91403795764002     -1.01157227625102
*