! B97-3c Opt Freq CPCM(Water)
! PrintMOs

* xyz 2 1
  O           0.01407843657961     -2.13620216856611      1.55695692983645
  O          -3.27555979220316     -1.39069938099029     -0.55991511702766
  N           2.67770745614337      0.14722614462952     -0.95549099840174
  N           2.75195262268101     -0.48580953952970      1.90296947955707
  N          -0.45625764732036      0.04182588752585      1.98289784015205
  N          -1.56598493576309     -0.06325075154835      1.21541119324712
  C           2.21839680086427      1.09889914445929      0.04443467250255
  C           2.59991022447262     -1.22569721620519     -0.47535540577345
  C           2.82643248508135      0.89281167475045      1.43194101446706
  C           3.21888191667473     -1.44345398528886      0.90595653587675
  C           3.84148896007192      0.52030103819772     -1.75338222550556
  C           1.67062825061784     -0.86727679202777      2.78076368323888
  C           5.19201635895134      0.58722054921222     -1.07637557931780
  C           0.34133663751176     -1.03649848238416      2.08944399646279
  C           6.02299425748940     -0.53044817751454     -1.03345445787086
  C           5.63214099332935      1.76425183689279     -0.47378237137682
  C           7.24393463554854     -0.48731747819224     -0.37416384686776
  C           6.85125259938234      1.81453486005801      0.18819769087704
  C           7.65963308944824      0.68547352169044      0.24443800616025
  C          -2.37308281974520      0.92901294068132      1.05307052270259
  C          -3.56110636119257      0.87417623574960      0.25020733741866
  C          -5.16867468723534     -0.13363205810722     -1.29624674799294
  C          -4.01084648475015     -0.21371300302154     -0.53067179703267
  C          -5.68240777555504     -1.28235363836405     -2.12779642705695
  C          -4.33792599290624      2.04556855491166      0.24402998208440
  C          -5.90002267867331      1.05065534819472     -1.25705952013739
  C          -5.49651086199956      2.13448193960147     -0.49439772264766
  C          -6.61574740259510     -2.15981418588456     -1.34694453496219
  C          -7.89446440628373     -2.33847609875085     -1.64990383789072
  H           2.43326335116988      2.10901664185125     -0.30146235007568
  H           1.13139043826255      1.01096565051516      0.11689032009602
  H           3.08001724163638     -1.88206364785985     -1.19988147576956
  H           1.54490797480560     -1.50691021379397     -0.43717575247386
  H           3.88081154970188      1.16910955705997      1.40298503071740
  H           2.33672441382923      1.54277956619156      2.15620562458861
  H           3.00870799441562     -2.45235825147179      1.25722282072619
  H           4.30178587580572     -1.33710492547562      0.83288404162188
  H           3.62226494412396      1.49525606401282     -2.19055689444115
  H           3.90118518393929     -0.19279196874766     -2.57642680218296
  H           1.90568863696283     -1.82160893919807      3.24804922319127
  H           1.57179280907533     -0.11856911198418      3.56647430362226
  H           5.70557124729263     -1.44612140763892     -1.51729293005326
  H           5.00932834662173      2.64934458385442     -0.51856677997882
  H          -0.22424363647352      0.92410470810479      2.42248326169229
  H           7.87487404007005     -1.36626558348021     -0.34944921501956
  H           7.17473048439761      2.73634173611050      0.65389822427601
  H           8.61170689824067      0.72251921453454      0.75728461901785
  H          -2.15852031959120      1.87311234644770      1.54576478036492
  H          -4.86267520329031     -1.87883842086920     -2.54078415203182
  H          -6.19980782300676     -0.87388959777177     -2.99266289995768
  H          -4.00530786514269      2.88463270961067      0.83837817662053
  H          -6.80596360264007      1.11124964034549     -1.84498705995731
  H          -6.08013186459860      3.04299194260228     -0.48408421389243
  H          -6.19355462011093     -2.65297138929966     -0.47653336116907
  H          -3.66929073809612     -2.03731763282238     -1.16536572165852
  H          -8.53236501539437     -2.97606305094567     -1.05237724171703
  H          -8.34768985467849     -1.85520259982081     -2.50718122694069
  Zn         -1.69271923657676     -1.96643652072717      0.54681898916971
*