! B3LYP def2-TZVP D3BJ CPCM(Water) RIJCOSX AutoAux
! PrintMOs

* xyz 2 1
  C           1.02264850745819     -0.23640395262138     -4.18532278760361
  C           2.40981248962980      0.38312418935712     -4.14810429607695
  C           2.98409216661947      0.47868695796077     -2.74321600717727
  C           4.37375297857593      1.09418609839291     -2.69820256720636
  C           4.93409760560042      1.19259414116754     -1.28653270317611
  C           6.31504628662734      1.79595518941106     -1.27884531384070
  O           6.78099720763408      1.81228154198732      0.10059715504753
  C           7.64228937914857      2.75712655250477      0.52260887779998
  C           8.77070062099136      3.19917930348393     -0.22501942150033
  O           8.98941765554355      2.60434602598647     -1.41011169065399
  C          10.03962305731986      3.11388016675965     -2.25613322050842
  C           9.94908667368141      2.40880834135766     -3.57982052183293
  C           9.61302115451965      4.14550746285208      0.33398480036602
  C           9.35620476129270      4.69665736247748      1.60352660069048
  C          10.09645093526046      5.82385115926066      2.08113105043864
  N          10.68831412839061      6.60752812928197      1.23738008057691
  N          11.40955661249619      7.68258740826885      1.62706408503320
  C          11.86592641987816      8.53852591602546      0.67325779261062
  C          12.64439857715855      9.68662598169363      1.01671847315643
  C          13.09794976340698     10.00651082935685      2.25252356641708
  C          13.88085462278968     11.15231315291883      2.61158462502554
  C          14.23270932179209     11.31714028067565      3.96436367756318
  C          14.98102737759864     12.39678627791512      4.37783310536791
  O          15.36343044353927     12.63265799741017      5.66347610547702
  C          15.40517108356172     13.35194163163377      3.43774532254446
  C          15.06340009875683     13.19677245298695      2.09685979432942
  C          14.31524785185622     12.11609153417118      1.68584746312635
  O          16.14001122294168     14.41974784294642      3.81279162368878
  O          11.58972201382780      8.31176302759643     -0.55340781570862
  C           8.29464010316769      4.19844566920243      2.35725215118913
  C           7.45272994300998      3.24790672113978      1.81023283483081
  H           0.63556576145104     -0.29129727982531     -5.20268302021338
  H           0.31601274680757      0.34628749252262     -3.59293826283774
  H           1.03404824992307     -1.24899587750448     -3.78008873822075
  H           2.37682780359562      1.38248400134143     -4.59019070656024
  H           3.08872998997058     -0.20225556598826     -4.77396305689050
  H           3.01725697453753     -0.52004017639250     -2.29850073948366
  H           2.30789347801056      1.06742112623367     -2.11670979236024
  H           4.34178143979728      2.09052267093522     -3.14716056065550
  H           5.05122469229575      0.50128063629938     -3.31838296313336
  H           4.97653280789249      0.19863752515855     -0.83659127509031
  H           4.27185639783369      1.79782357470201     -0.66485467575987
  H           6.30166727683939      2.81625270530470     -1.65930247814923
  H           7.00450628691313      1.21033116213052     -1.88084220564380
  H          11.00368538358300      2.93623511198073     -1.77760064110750
  H           9.90672086630562      4.19412744745800     -2.36794839415327
  H          10.07674450841012      1.33478624602599     -3.46082116465350
  H          10.73834147168044      2.77485019559025     -4.23389982809367
  H           8.99128989430862      2.59684458041307     -4.06021829252705
  H          10.57293133382565      4.31549068730315     -0.13414716830169
  H          10.11517544959555      6.05441453971114      3.14181378269058
  H          11.57216400520239      7.82866013047342      2.61308225579511
  H          12.86703540076281     10.30711120892637      0.16153465008670
  H          12.86894886355852      9.35212871666120      3.08588903665203
  H          13.91099373336558     10.58739278424191      4.69672162065623
  H          15.02803255922832     11.94008656937687      6.24779870419807
  H          15.40022950598662     13.94042288585200      1.38868263824971
  H          14.07009501549907     12.02303592545777      0.63859787297258
  H          16.28927671129375     14.38121066985550      4.77010755948297
  H           8.09052040431211      4.60147203652940      3.33901059639613
  H           6.60525057677316      2.87824368398740      2.36908566490826
  Zn         10.53867676723583      6.64459353616843     -0.76859023449538
*