! B3LYP def2-TZVP D3BJ CPCM(Water) RIJCOSX AutoAux
! PrintMOs

* xyz 2 1
  C          10.06533978150896      5.03987752285529      1.35534884875733
  C           9.51019267862363      3.85480501604442      0.84096884801165
  C          11.40498965237447      5.30210951025688      1.17246636921523
  C          12.23431189295166      4.39798723550380      0.48268316638099
  C          11.66136986942153      3.21943806046793     -0.02557010485951
  C          10.32170403220739      2.95628298790561      0.15287273085643
  H          11.82350179704459      6.21745668130073      1.57179032644516
  H           9.87555533079527      2.05325586132364     -0.23914496024535
  H          12.26381079406219      2.50668637507355     -0.56836463945482
  O           9.19475938167140      5.85468821536537      2.01337993008723
  O           8.20069973065293      3.57095017724664      1.00052051364503
  C          13.62042732947472      4.72444549135508      0.33812025088142
  C          14.58858896494634      3.95840585659397     -0.22111897907553
  H          13.92089255558211      5.68849204548726      0.73190571590820
  C          15.94050579861733      4.40112162209870     -0.29584129621601
  H          14.38065900820233      2.97473909111464     -0.61846265657835
  N          16.84349044134893      3.51549467008842     -0.82701946263863
  O          16.34019806947972      5.54432503845969      0.09364157463388
  N          18.10731993715567      3.93379869838280     -0.89827401227365
  C          19.13995230537708      3.28410279844322     -1.31503777496664
  C          20.37389402979948      4.03010939886782     -1.29668017532396
  H          19.09794444581747      2.23752759033988     -1.59682802424008
  C          20.33461822227977      5.44695141503566     -1.42254414836306
  C          21.45651572300079      6.22778393542842     -1.14404138511274
  C          22.64726612684682      5.58575764382493     -0.69945995419263
  C          22.69107240120795      4.19406321361010     -0.67989642662811
  C          21.57528947503543      3.42197134324597     -0.97769822730284
  H           9.64815607306207      6.64584829234410      2.33229414771660
  H           7.77845575745745      4.28705740471782      1.49956109742061
  H          16.57123915431408      2.60367546706846     -1.17231616081497
  H          19.60011078103636      5.90766203065496     -2.08074221184840
  H          21.63248698406823      2.34689192826899     -0.88364547674986
  O          23.65935133989982      6.38336032071978     -0.33456339674786
  C          24.92639114736644      5.79131009360334      0.02898341722496
  C          25.89655269205397      6.90749235062000      0.31585899257955
  H          25.27515259548657      5.16998530638202     -0.79711557734084
  H          24.78162006181554      5.15736578675060      0.90503144997013
  C          27.26139486385119      6.36877327410965      0.71937647353389
  H          25.49551179152091      7.53711388070584      1.11191982022293
  H          25.99254715267391      7.53484914991855     -0.57172741969060
  H          23.59673612601742      3.69392930315932     -0.37728937406009
  O          21.32170501874754      7.55073937753431     -1.32444883432331
  C          22.41295356270752      8.34999602186758     -1.83657475223666
  H          23.07120821878808      8.66635928965288     -1.03577800788422
  H          21.93678391243259      9.21128265309943     -2.29221824151729
  H          22.97313112298072      7.79911833926388     -2.58682327192658
  C          28.27903438521576      7.46666408130330      0.98437958036733
  H          27.63901450097745      5.71060068745036     -0.06766385044380
  H          27.15733373922944      5.74774809535033      1.61281617182164
  C          29.64590662927221      6.93636210323460      1.38849228053868
  H          27.90242616496593      8.12882062861846      1.76934248663759
  H          28.38295361715006      8.08618049187333      0.08908040964427
  C          30.66368662900484      8.03600698806832      1.64106946440374
  H          30.01601904068670      6.26844479127977      0.60604422286864
  H          29.54020255988231      6.32085612743599      2.28575869476053
  H          30.81198438778160      8.64595697502327      0.74908867120793
  H          31.63243253993125      7.62645154628648      1.92679536750808
  H          30.33596057066753      8.70003189600132      2.44202895974039
  Zn         18.31265533979767      5.81454436959293     -0.17170486734262
*