! B3LYP def2-TZVP D3BJ CPCM(Water) RIJCOSX AutoAux
! PrintMOs

* xyz 2 1
  O          -5.47056892177825    -10.15188615019683      0.75067414100811
  C          -4.61848832717141     -9.27778265181249      0.14933852849779
  C          -3.50437883426863     -9.87278585803437     -0.48121633483144
  O          -3.33610884788271    -11.21035257135935     -0.46509799229860
  C          -2.57047168817321     -9.07231904822667     -1.12512999672384
  C          -2.73403063769953     -7.70258956625506     -1.14605874839583
  C          -3.83683140192087     -7.09312581584128     -0.52502379264136
  C          -3.94766422114322     -5.66949358831956     -0.59157530590189
  C          -4.92837068954721     -4.88611847461392     -0.07835911133595
  C          -4.90095226694262     -3.47166742599840     -0.24688848481180
  N          -5.93591050922502     -2.76381794495063      0.29487830917358
  N          -5.96049250831642     -1.43869225123760      0.08364588596032
  C          -6.91862599061095     -0.67526382084872      0.48875587851764
  C          -6.93330421116481      0.72201876221920      0.13238687115914
  C          -8.18288628377940      1.36097821689812      0.05341652184736
  C          -8.31608885531048      2.62059564362374     -0.55494805231980
  C          -7.22620597194024      3.22899601726002     -1.10949801568540
  C          -5.93933943511772      2.65913401740756     -1.00690217882961
  C          -5.77973827223880      1.43464113593993     -0.30443553375223
  C          -4.43291802558071      0.99861332933648     -0.06022655387951
  C          -3.34496194846710      1.69659090731303     -0.58840741224224
  C          -3.53984762027270      2.81296815996984     -1.39990042214209
  C          -4.81258424622171      3.30788330214263     -1.55339449699666
  O          -9.23451519396287      0.66570383716178      0.52936321337095
  C         -10.54067047962276      1.21519651767384      0.43791661668354
  C         -11.49054456992012      0.18609646310244      1.01454910748979
  F         -11.21815921617585     -0.09894973798477      2.30691222426462
  F         -12.75333891827013      0.66349876492989      0.95515322569042
  F         -11.45871025165106     -0.97959324104881      0.33155505741792
  O          -3.97782086654932     -2.85530815387248     -0.87216373241113
  C          -4.77906696675236     -7.91298696589757      0.12581105249058
  H          -6.19661443874289     -9.67739566954335      1.17625438178702
  H          -4.06903255713175    -11.61649146222442      0.02312446133316
  H          -1.72221091204359     -9.54122065688182     -1.60288793227722
  H          -2.00276786905314     -7.08579169935653     -1.64978615838660
  H          -3.14770868332733     -5.16752830761923     -1.12274851358179
  H          -5.76859659268291     -5.29522035870656      0.46528943090733
  H          -6.69955464286631     -3.22540103074272      0.77372773877546
  H          -7.76607769207602     -1.10134363005253      1.01337788768150
  H          -9.28127598477530      3.09462089986382     -0.62776719174972
  H          -7.34217269697012      4.16966746745380     -1.62925427717795
  H          -4.24615668805749      0.38156730691543      0.81696167111161
  H          -2.34566245577599      1.38214114023254     -0.32218550873529
  H          -2.69441439427135      3.32629128572216     -1.83293238717017
  H          -4.97092806293198      4.22873390915153     -2.09869546768337
  H         -10.82593065125914      1.39967761245543     -0.59639749797608
  H         -10.63160380454554      2.13216602861195      1.01765366701388
  H          -5.64216165226868     -7.48535998565663      0.61773493310241
  Zn         -4.28090691617088     -0.91384760075988     -1.01093585966031
*