! B3LYP def2-TZVP D3BJ CPCM(Water) RIJCOSX AutoAux
! PrintMOs

* xyz 2 1
  O           0.01405262843338     -2.14123308229342      1.54419130658411
  O          -3.30308632686860     -1.40177799823942     -0.53730162908564
  N           2.68156063829513      0.14555145122658     -0.95981832119749
  N           2.74971800651951     -0.49042918363697      1.89779380834014
  N          -0.45777705488849      0.03519572986362      1.97447306747669
  N          -1.56852322791083     -0.06932384418044      1.20806885801976
  C           2.21844215556246      1.09552644950498      0.04000985679465
  C           2.60422375804412     -1.22798772618940     -0.48142389689021
  C           2.82343566695146      0.88881177759719      1.42878427202872
  C           3.22021336722252     -1.44653458168296      0.90106899889693
  C           3.84715193007797      0.52103324357431     -1.75396733733661
  C           1.66804960011710     -0.87443265681076      2.77378107445542
  C           5.19542642094026      0.59018270604831     -1.07270248668036
  C           0.33981111064568     -1.04281807877848      2.08017025558727
  C           6.02831967312048     -0.52597389419888     -1.02730854332558
  C           5.63142402352716      1.76785229572218     -0.46838881967985
  C           7.24699263087866     -0.48076949382524     -0.36398935911752
  C           6.84823257765800      1.82019735033182      0.19766706437090
  C           7.65846224836229      0.69259971610354      0.25635759065705
  C          -2.37611799218785      0.92367431227000      1.05206769588554
  C          -3.56460449353364      0.87396540834844      0.25006235879255
  C          -5.17391068594286     -0.12791955757002     -1.29842896787752
  C          -4.02096096778745     -0.21400412203272     -0.52594219791574
  C          -5.69251378421156     -1.27869349583373     -2.12379223856844
  C          -4.33314404918008      2.05085413650594      0.23710218301696
  C          -5.89486690931240      1.06286168488205     -1.26939741442449
  C          -5.48660632241895      2.14627599372973     -0.50837928841430
  C          -6.61295234991424     -2.16126162972546     -1.33316208515512
  C          -7.89407393284012     -2.34531122027228     -1.62223062763579
  H           2.43277114006382      2.10631173185905     -0.30429628162903
  H           1.13137432448496      1.00592207899031      0.10980783552737
  H           3.08657826867390     -1.88302297280564     -1.20567698755921
  H           1.54944895604480     -1.51033471333801     -0.44582825855485
  H           3.87743232359790      1.16691418667388      1.40280281184994
  H           2.33088431373028      1.53718123758942      2.15255766122489
  H           3.01025559293739     -2.45604167050181      1.25074786115891
  H           4.30318631896193     -1.33903580434385      0.83061890468979
  H           3.62750376079934      1.49579358008333     -2.19138709540380
  H           3.91060411265046     -0.19163927986957     -2.57709303465705
  H           1.90315537781950     -1.82961242800082      3.23930364642732
  H           1.56764299898984     -0.12751106161272      3.56099655944683
  H           5.71407401090203     -1.44212909434413     -1.51230348066750
  H           5.00718280041257      2.65183471733463     -0.51498333829969
  H          -0.22924696774584      0.91556925515423      2.41972850735876
  H           7.87942148177924     -1.35858294760188     -0.33732925219177
  H           7.16844333231560      2.74247705726438      0.66468228305948
  H           8.60870839764410      0.73123560130878      0.77245988467466
  H          -2.15968644889414      1.86573734207577      1.54787981458550
  H          -4.87426738415086     -1.87160414010897     -2.54557237824257
  H          -6.22105341273348     -0.87275490859842     -2.98300254402781
  H          -3.99656989473787      2.88988094039775      0.82925765687092
  H          -6.79697825752055      1.12871238237059     -1.86259311440381
  H          -6.06321614416472      3.05930238206988     -0.50427165566376
  H          -6.17898861880213     -2.65406030959651     -0.46837729293485
  H          -3.66967947359277     -2.02775957311889     -1.18057803206701
  H          -8.52250085610478     -2.98660496764414     -1.01865433834359
  H          -8.35889335756122     -1.86309243850204     -2.47387553153591
  Zn         -1.68728950578245     -1.97049005410925      0.52594364481283
*