!GFN2-XTB

%DOCKER 
	GUEST "zn.xyz" 
	DOCKLEVEL complete
	ALLOWMETALCOORD true
END

* xyz 0 1
C         -2.19997        2.38605       -0.59797
C         -0.75342        2.16769       -0.18575
C          0.10088        1.69011       -1.36048
C          1.55329        1.47999       -0.93313
C          2.43565        1.06374       -2.10919
C          3.89019        0.90624       -1.67230
O          4.68631        0.61486       -2.82969
C          5.85656        1.33446       -2.86195
C          6.79009        1.37314       -1.81008
O          6.51600        0.60287       -0.71286
C          7.55247        0.40931        0.24888
C          7.04402       -0.51733        1.36639
C          5.90358        0.13933        2.14792
C          6.58599       -1.86819        0.81391
C          7.89729        2.21670       -1.92579
C          6.08366        2.04315       -4.04562
C          7.18944        2.88320       -4.15557
C          8.07435        2.99057       -3.08153
C          9.12137        4.03079       -3.13012
N          9.89977        4.24757       -2.11961
N         10.67992        5.36257       -2.20109
C         11.46213        5.72047       -1.11531
C         11.85111        7.15622       -1.16835
C         12.53062        7.69981       -0.14761
C         12.75375        9.14332       -0.05926
C         11.66270       10.00644        0.13236
C         11.88409       11.37377        0.24355
O         10.85952       12.25815        0.44139
C         13.17621       11.88464        0.16308
O         13.38382       13.22925        0.27587
C         14.26351       11.04263       -0.02160
C         14.05223        9.66496       -0.12870
O         11.75138        5.00528       -0.16400
H         -2.78866        2.73368        0.25681
H         -2.64787        1.45689       -0.96407
H         -2.27311        3.13904       -1.38915
H         -0.71683        1.43150        0.62564
H         -0.34868        3.10651        0.21049
H          0.05786        2.43015       -2.16887
H         -0.30541        0.75214       -1.75757
H          1.60022        0.71454       -0.14898
H          1.94131        2.40964       -0.49844
H          2.37663        1.81150       -2.90995
H          2.07880        0.12283       -2.54532
H          3.97828        0.06962       -0.97032
H          4.20663        1.82987       -1.16933
H          7.84195        1.36794        0.69538
H          8.42557       -0.04671       -0.23413
H          7.87436       -0.69373        2.06143
H          5.03059        0.32420        1.51318
H          6.22488        1.09783        2.56921
H          5.58575       -0.49961        2.97869
H          5.72159       -1.76320        0.14952
H          6.29885       -2.54058        1.62952
H          7.39125       -2.35063        0.25045
H          8.61120        2.32649       -1.11490
H          5.36797        1.97150       -4.86072
H          7.32307        3.47184       -5.05861
H          9.16378        4.65279       -4.04234
H         10.55084        5.99326       -2.98217
H         11.49074        7.75923       -1.99185
H         12.88561        7.10049        0.68836
H         10.65862        9.59994        0.20802
H         10.03567       11.75081        0.54355
H         12.49124       13.60455        0.41396
H         15.26701       11.45376       -0.07469
H         14.90607        9.00508       -0.26522
*