!GFN2-XTB

%DOCKER 
	GUEST "zn.xyz" 
	DOCKLEVEL complete
	ALLOWMETALCOORD true
END

* xyz 0 1
C          0.36559        1.09696       -2.28404
C          1.71646        1.69096       -2.64970
C          2.82808        1.14833       -1.75195
C          4.18574        1.74510       -2.12541
C          5.29040        1.23136       -1.20448
C          6.64745        1.83383       -1.56086
O          7.60471        1.34831       -0.60926
C          8.51109        2.31135       -0.24573
C          9.36629        2.96062       -1.14985
O          9.28310        2.60697       -2.47064
C         10.52539        2.60583       -3.17772
C         10.34375        1.76530       -4.42907
C         10.22145        3.96225       -0.68100
C         10.25282        4.26789        0.68493
C         11.09522        5.36475        1.19770
N         11.84031        6.08309        0.42004
N         12.49745        7.10480        1.03774
C         13.33680        7.93986        0.32417
C         13.84225        9.07530        1.13954
C         12.98864        9.85196        1.82734
C         13.34101       10.99776        2.68500
C         12.31928       11.58166        3.45691
C         12.60553       12.65378        4.29722
O         11.64383       13.24583        5.06915
C         13.89830       13.15753        4.37763
C         14.91748       12.60862        3.61742
C         14.63808       11.53120        2.76930
O         14.17354       14.20365        5.20935
O         13.71370        7.80013       -0.83248
C          9.45106        3.56898        1.59109
C          8.58313        2.58535        1.12184
H         -0.41528        1.50162       -2.93549
H          0.10027        1.33325       -1.24859
H          0.37237        0.00821       -2.39743
H          1.66493        2.78233       -2.55960
H          1.93867        1.46203       -3.69840
H          2.87132        0.05576       -1.83778
H          2.59925        1.38131       -0.70478
H          4.13478        2.83893       -2.06083
H          4.42596        1.49353       -3.16546
H          5.35343        0.13730       -1.25608
H          5.05212        1.47017       -0.16023
H          6.57119        2.92946       -1.54826
H          6.94735        1.50638       -2.56249
H         11.32604        2.17035       -2.56727
H         10.79079        3.62881       -3.46548
H         10.04328        0.74514       -4.16725
H         11.26972        1.72307       -5.00923
H          9.54953        2.17887       -5.05939
H         10.84727        4.52807       -1.36573
H         11.04084        5.55758        2.28470
H         12.35074        7.26277        2.02747
H         14.91020        9.23671        1.07925
H         11.92155        9.64322        1.75878
H         11.30641       11.19361        3.40301
H         10.79060       12.82019        4.87792
H         15.92281       13.01433        3.68120
H         15.45588       11.12615        2.17957
H         13.31661       14.41649        5.62973
H          9.47675        3.79054        2.65431
H          7.94258        2.04461        1.81371
*