!GFN2-XTB

%DOCKER 
	GUEST "zn.xyz" 
	DOCKLEVEL complete
	ALLOWMETALCOORD true
END

* xyz 0 1
C          8.85430        1.01940        0.60940
C          8.65440       -0.35400        0.66970
C         10.12930        1.54080        0.43060
C         11.22770        0.67840        0.27790
C         11.00860       -0.70790        0.30610
C          9.72210       -1.22410        0.50730
H         10.25730        2.61970        0.38390
H          9.55870       -2.29730        0.53490
H         11.82790       -1.40470        0.15130
O          7.79260        1.87510        0.67950
O          7.41180       -0.86560        0.90540
C         12.53780        1.27540       -0.02070
C         13.74940        0.75240        0.23660
H         12.47960        2.24980       -0.50950
C         14.94360        1.52920       -0.20470
H         13.89240       -0.19720        0.73030
N         16.15440        0.98330        0.19530
O         14.82170        2.55860       -0.86420
N         17.28340        1.64970       -0.16480
C         18.43510        1.22890        0.24840
C         19.65460        1.99670       -0.11460
H         18.54530        0.33180        0.88070
C         19.50390        3.11910       -0.94330
C         20.60010        3.90940       -1.26760
C         21.84890        3.61050       -0.73090
C         22.02780        2.51330        0.13350
C         20.92650        1.65760        0.37400
H         22.68590        4.25960       -0.98230
H          7.12500        1.52070        0.06310
H          6.93810       -0.19340        1.42950
H         16.21950        0.15770        0.77600
H         20.47370        4.77200       -1.91710
H         18.52540        3.39000       -1.33830
O         21.06630        0.53080        1.14900
C         21.80300       -0.50140        0.46670
C         22.53080       -1.34380        1.51700
H         22.51280       -0.10270       -0.26590
H         21.08720       -1.12870       -0.07810
C         23.68270       -2.17030        0.93400
H         21.79680       -2.02130        1.97090
H         22.89070       -0.71020        2.33690
C         25.01790       -1.41830        0.99580
H         23.45940       -2.46980       -0.09670
H         23.78130       -3.09250        1.51970
C         26.16260       -2.23970        0.40020
H         25.24820       -1.18020        2.04190
H         24.94010       -0.46700        0.45920
C         27.50740       -1.55780        0.60770
H         25.99310       -2.38410       -0.67300
H         26.19370       -3.23350        0.86140
H         27.51860       -0.55940        0.15930
H         28.30720       -2.14680        0.14760
H         27.73420       -1.45750        1.67430
C         23.39370        2.25030        0.74040
C         24.17460        3.48410        1.10830
H         23.96510        1.64060        0.03150
H         23.28440        1.67010        1.66360
C         25.36650        3.80220        0.58470
H         23.72930        4.14050        1.85340
H         25.84940        3.17580       -0.15930
H         25.88430        4.70630        0.89010
*