!GFN2-XTB

%DOCKER 
	GUEST "zn.xyz" 
	DOCKLEVEL complete
	ALLOWMETALCOORD true
END

* xyz 0 1
C          9.32090        4.31280        0.06770
C          9.20470        2.92980        0.01140
C         10.57160        4.91870        0.06310
C         11.73470        4.13680       -0.03260
C         11.59880        2.74130       -0.13090
C         10.33550        2.13770       -0.10420
H         10.63070        6.00320        0.11710
H         10.24140        1.05740       -0.16220
H         12.46710        2.09720       -0.23210
O          8.20520        5.09910        0.09340
O          7.98210        2.33080        0.09570
C         13.03290        4.83250       -0.07290
C         14.24680        4.27240        0.05610
H         12.97130        5.91260       -0.21580
C         15.45680        5.14240       -0.00780
H         14.38970        3.21390        0.21390
N         16.63350        4.41780        0.08950
O         15.36990        6.35830       -0.13620
N         17.82570        5.07660        0.04290
C         18.89130        4.34940        0.13270
C         20.23840        4.95440        0.09510
H         18.83980        3.25130        0.24090
C         20.39800        6.33370       -0.04150
C         21.67580        6.91310       -0.07590
C         22.81350        6.09000        0.02920
C         22.63730        4.70260        0.16510
C         21.35840        4.13480        0.19830
H          7.58910        4.71010       -0.55460
H          7.44150        2.90350        0.67090
H         16.62830        3.41130        0.18840
H         19.52290        6.97780       -0.12280
H         21.25700        3.05830        0.30520
O         24.04430        6.68410       -0.00510
C         25.21300        5.87350        0.09880
C         26.41940        6.80800        0.04000
H         25.25620        5.16550       -0.73710
H         25.21510        5.33400        1.05310
C         27.73850        6.04570        0.13760
H         26.34560        7.54380        0.85080
H         26.38400        7.38630       -0.89200
H         23.48370        4.02820        0.24900
O         21.61250        8.27530       -0.21470
C         22.81340        9.02730       -0.27150
H         23.38010        8.94360        0.66100
H         22.53680       10.08030       -0.38590
H         23.41260        8.75580       -1.14610
C         28.93260        7.00090        0.09060
H         27.80940        5.32640       -0.68730
H         27.76360        5.47140        1.07150
C         30.25710        6.24420        0.18350
H         28.86100        7.71840        0.91720
H         28.90470        7.57870       -0.84130
C         31.44390        7.19390        0.14550
H         30.33860        5.53300       -0.64660
H         30.29060        5.66400        1.11300
H         31.45680        7.76880       -0.78610
H         32.38110        6.63250        0.21130
H         31.41000        7.89780        0.98320
*