!GFN2-XTB

%DOCKER 
	GUEST "zn.xyz" 
	DOCKLEVEL complete
	ALLOWMETALCOORD true
END

* xyz 0 1
O         -5.91240       -9.92560       -1.20840
C         -4.87750       -9.26500       -0.61040
C         -3.89470       -9.96920        0.07730
O         -3.88870      -11.33350        0.07030
C         -2.88530       -9.29540        0.74590
C         -2.84720       -7.89870        0.69370
C         -3.82340       -7.17620       -0.01410
C         -3.70740       -5.71300       -0.07360
C         -4.75060       -4.86820       -0.08530
C         -4.50310       -3.40020       -0.13900
N         -5.68000       -2.67130       -0.15940
N         -5.62350       -1.31030       -0.20780
C         -6.75770       -0.69260       -0.29520
C         -6.87770        0.79180       -0.34770
C         -8.10120        1.33370        0.11330
C         -8.27660        2.71610        0.11400
C         -7.26000        3.55390       -0.34250
C         -6.04940        3.03830       -0.81910
C         -5.82940        1.63740       -0.83710
C         -4.58350        1.20330       -1.36440
C         -3.61130        2.09650       -1.82440
C         -3.85030        3.46010       -1.78120
C         -5.06320        3.92640       -1.28310
O         -9.05220        0.44710        0.55490
C        -10.30180        0.96890        1.02590
C        -11.22940       -0.16590        1.43430
F        -10.70610       -0.90490        2.43650
F        -12.41380        0.32620        1.86770
F        -11.49000       -0.99280        0.39760
O         -3.36830       -2.93720       -0.17160
C         -4.83860       -7.87720       -0.68000
H         -6.07860      -10.71570       -0.66150
H         -4.08830      -11.59570       -0.84750
H         -2.12050       -9.84550        1.28570
H         -2.04420       -7.37610        1.21060
H         -2.69090       -5.32020       -0.08870
H         -5.77350       -5.21620       -0.04420
H         -6.58400       -3.12640       -0.14130
H         -7.70130       -1.26650       -0.31530
H         -9.18740        3.18860        0.46650
H         -7.42750        4.63010       -0.32630
H         -4.33660        0.14580       -1.42940
H         -2.66980        1.71410       -2.21080
H         -3.09700        4.15840       -2.13480
H         -5.23350        5.00110       -1.26210
H        -10.78870        1.54310        0.22920
H        -10.13010        1.61120        1.89720
H         -5.60020       -7.35800       -1.25340
*