!GFN2-XTB

%DOCKER 
	GUEST "zn.xyz" 
	DOCKLEVEL complete
	ALLOWMETALCOORD true
END

* xyz 0 1
O         -0.78527        2.16695       -1.78117
O         -4.17040        0.03240       -1.16814
N          4.64350        0.91072       -0.38210
N          2.01914        2.24686       -0.69986
N         -1.24165        2.03035        0.48617
N         -2.42854        1.39961        0.27932
C          4.48580        2.19881       -1.08881
C          3.37765        0.15057       -0.48209
C          3.27346        3.00762       -0.57687
C          2.15517        0.96134        0.00983
C          5.76428        0.15575       -0.96843
C          0.86991        3.03620       -0.22448
C          6.17203       -1.04572       -0.14289
C         -0.45830        2.37207       -0.61289
C          5.95568       -2.34812       -0.61555
C          6.77740       -0.87097        1.11045
C          6.34261       -3.45134        0.14750
C          7.16709       -1.97485        1.87000
C          6.95025       -3.26439        1.38799
C         -3.14658        1.15963        1.32883
C         -4.43845        0.45250        1.21046
C         -6.11403       -0.76562       -0.07061
C         -4.89163       -0.08029       -0.00746
C         -6.61085       -1.38900       -1.35594
C         -5.20737        0.30683        2.37003
C         -6.86929       -0.91023        1.10558
C         -6.42320       -0.37325        2.31437
C         -6.12763       -2.80320       -1.52446
C         -6.92169       -3.88060       -1.57802
H          5.38621        2.80745       -0.94083
H          4.37552        2.03529       -2.16971
H          3.43688       -0.75761        0.12871
H          3.19798       -0.16256       -1.51974
H          3.44662        3.30216        0.46702
H          3.20542        3.92798       -1.16945
H          1.26257        0.34563       -0.15027
H          2.24690        1.12899        1.09141
H          6.65071        0.80163       -1.03575
H          5.53922       -0.14882       -1.99950
H          0.92464        3.20558        0.85734
H          0.86058        4.02128       -0.70770
H          5.48090       -2.51033       -1.58046
H          6.94243        0.13263        1.49617
H         -0.93216        2.22532        1.43097
H          6.16965       -4.45705       -0.22636
H          7.63805       -1.82743        2.83802
H          7.25280       -4.12383        1.98010
H         -2.82731        1.46946        2.33965
H         -6.28959       -0.79309       -2.21867
H         -7.70791       -1.34819       -1.37325
H         -4.87284        0.71358        3.32033
H         -7.81289       -1.45252        1.08048
H         -7.02390       -0.49392        3.21275
H         -5.05070       -2.93133       -1.62195
H         -3.36437        0.57128       -0.99408
H         -6.49884       -4.87184       -1.70934
H         -8.00036       -3.80011       -1.49410
*