! B3LYP def2-TZVP D3BJ CPCM(Water) RIJCOSX AutoAux
! PrintMOs

* xyz 0 1
  C          -1.35598466327030      2.35432811536276     -0.22769775412924
  C          -0.37457865065788      1.20258522733693     -0.36819223907217
  C           0.85615163309602      1.55968147780567     -1.18671235329644
  C           1.83981113903584      0.40934757983469     -1.33072999007334
  C           3.07558711176751      0.77500522200359     -2.13890767719606
  C           4.03734311967118     -0.38468745259800     -2.23730282667762
  O           5.18770485512334     -0.10514691504202     -3.07677825001180
  C           5.91530049557397      1.03010755763910     -2.87633172078886
  C           6.45185594435677      1.41505415316318     -1.62233034153991
  O           6.16444167297175      0.61490060591454     -0.56787779361096
  C           6.69244614866800      0.96466545166721      0.72148633189360
  C           6.19934337922924     -0.03210021187258      1.75048067443696
  C           4.69196733457425      0.04615866380864      1.95084021648378
  C           6.65617571925253     -1.45149696823268      1.44132277148912
  C           7.24358728024231      2.54892253877943     -1.54394537831731
  C           6.21100769515580      1.79260027021111     -3.99721694131864
  C           7.01482817858573      2.91626909182709     -3.91481081891343
  C           7.53536289173788      3.31311579879021     -2.68258151277467
  C           8.37188290383109      4.48978513764446     -2.62499675757227
  N           8.90648292202860      4.90757792607285     -1.52937448182352
  N           9.67346742704233      6.01416947021002     -1.61703761775595
  C          10.31395510563330      6.54636105161378     -0.52114885482384
  C          11.10592754014274      7.72995616956062     -0.85497758012669
  C          11.80434446561806      8.39236482564628      0.08405605316884
  C          12.62980270548378      9.56328788213182     -0.08946615633618
  C          12.83278011603477     10.18035873580859     -1.33569700724915
  C          13.63128050208999     11.29686286468979     -1.44767526704200
  O          13.88202982846090     11.95400873060548     -2.61712718422013
  C          14.25767412731449     11.83843347178489     -0.30943716536565
  O          15.04761234114594     12.93700429293330     -0.40532110629367
  C          14.06390122131163     11.23705133637212      0.92417102741956
  C          13.26102941646609     10.11486820283189      1.03236462899561
  O          10.21555244027975      6.05555204742114      0.60886366553560
  H          -2.22602676336926      2.06905217416500      0.36354453490982
  H          -1.71319264478587      2.68771656114945     -1.20291594509453
  H          -0.88955269817475      3.21067905591474      0.26110318444822
  H          -0.87673889098282      0.34835573513000     -0.83026793694023
  H          -0.05966664272933      0.86742671489164      0.62374869789192
  H           1.36316553200587      2.41115928402195     -0.72351951113327
  H           0.54443257613290      1.89616501792987     -2.17977295313155
  H           1.33601919399541     -0.44048534950639     -1.79926711893884
  H           2.14473189863548      0.07237981028822     -0.33676259688237
  H           3.57492236071936      1.62585314799565     -1.67122820404073
  H           2.78546899300696      1.09086842031115     -3.14343088557111
  H           3.56736218186609     -1.23318854742332     -2.72998633768052
  H           4.36929651098495     -0.69845283302750     -1.25184836877758
  H           6.36488514186670      1.97268418853424      0.98421932835532
  H           7.78368516300885      0.95763820724661      0.67330261428492
  H           6.68056415563865      0.28289073946935      2.68168216548484
  H           4.16033879270837     -0.27910435701291      1.05874004992907
  H           4.37350832973720      1.06362905310304      2.17758743014519
  H           4.37982536804132     -0.59544258630775      2.77381006621011
  H           6.18942496049975     -1.82347517494843      0.53041813018019
  H           6.38534526577188     -2.12642920669196      2.25213145178228
  H           7.73712557879573     -1.50118527194345      1.30952368662142
  H           7.66698936317057      2.85226124782093     -0.60059359342067
  H           5.79415005367227      1.47992310252179     -4.94436594484958
  H           7.22888784599052      3.49338715885830     -4.80439748274262
  H           8.53834346536405      5.01603569044012     -3.56843373351090
  H           9.79211116542037      6.46312930087462     -2.51942294724384
  H          11.11039243909647      8.05174867536799     -1.88866885427564
  H          11.74796931556252      8.00997037907194      1.09776568617911
  H          12.36680710152883      9.78642972528994     -2.22910932181131
  H          13.42190477873256     11.52165045826570     -3.34821910097679
  H          15.07561409588200     13.22170984864291     -1.33097755663017
  H          14.54934850261902     11.65956425202831      1.79272282318706
  H          13.11852682498968      9.65473512122827      2.00068133278197
*