! B3LYP def2-TZVP D3BJ CPCM(Water) RIJCOSX AutoAux
! PrintMOs

* xyz 0 1
  C           6.18513965582080      1.34469497027211     -0.94963105577205
  C           4.95480694654767      2.23551794549811     -0.98176867054345
  C           4.65504367052508      2.87209701127506      0.36758762225788
  C           3.42246476573496      3.78112967115668      0.39583735662992
  C           3.66556616171009      5.27279088996343      0.18994819473764
  C           4.12548661418240      5.71380740463700     -1.18560430324633
  O           5.50745830873682      5.42009425794858     -1.47199651799706
  C           6.47609903476202      6.18884809213930     -0.93004295555479
  C           7.80741806740656      5.79325718358817     -1.23391159169079
  O           7.92336612290411      4.69561117653498     -2.02273192383859
  C           9.24342122026682      4.26436639085255     -2.39244602881931
  C           9.10581715213827      3.07634794523876     -3.30453144734049
  C           8.86874955821717      6.52014699579371     -0.73598102678159
  C           8.65557786650329      7.65411716773802      0.06646862090144
  C           9.74779549855734      8.43351260704316      0.59924418454902
  N          10.98146014505670      8.14574712409099      0.36288657070506
  N          11.91029534505683      8.95394141045063      0.92634959090413
  C          13.24902590677372      8.78317257014466      0.68688245203893
  C          14.15737957580108      9.65362727464137      1.43820371352625
  C          13.91185046570232     10.20915941135266      2.63836755488207
  C          14.81340194112507     11.02416144952530      3.42549777474568
  C          14.38262371386687     11.46351709088810      4.68694475989439
  C          15.19483242764380     12.23804217788150      5.49161710535908
  O          14.84461982053518     12.70033637013037      6.72823249979045
  C          16.47534678177164     12.59866708201096      5.04979033035383
  C          16.90963609447275     12.17165831902311      3.80059804082048
  C          16.09476305912996     11.39672618787401      2.99844053389743
  O          17.29749399997111     13.35723851060520      5.81922952473470
  O          13.68025008094514      7.95088976805834     -0.12205126640557
  C           7.34771463005373      8.03735125865519      0.35190997380981
  C           6.27133971007083      7.31213306081434     -0.13930855829716
  H           6.37710796137730      0.88941505867866     -1.92112035222882
  H           6.06971645126861      0.53960089621178     -0.22218421245954
  H           7.07300173919681      1.91351317142150     -0.67178970581649
  H           4.08658500555750      1.64870976217089     -1.29416123750190
  H           5.08741863468501      3.01162354718801     -1.73438207605208
  H           5.53048328082497      3.43190540555704      0.70744740184191
  H           4.51811947621872      2.06699188700413      1.09411532210772
  H           2.93030720719856      3.67622488670066      1.36445095121703
  H           2.69538774467972      3.43083244208807     -0.34249451949339
  H           4.36696176155208      5.63414568207281      0.94304647101897
  H           2.72853785052180      5.80264449417802      0.37801827328877
  H           3.57927267904590      5.17962730074005     -1.95992299850886
  H           3.95121202378053      6.77963092443867     -1.33473201815451
  H           9.80376892781689      4.00669094678780     -1.49116051669264
  H           9.76310776332083      5.08420038459939     -2.89262020783625
  H           8.59619255110282      2.25463709950087     -2.80654109870884
  H          10.09586526327187      2.73426453498262     -3.60153429226458
  H           8.55156014837752      3.33562411925352     -4.20482965074422
  H           9.88252326648218      6.22877893296864     -0.95694507001413
  H           9.47763128216394      9.29087811041263      1.22094054429628
  H          11.60418427631568      9.73253764506486      1.49856179463858
  H          15.12658079301042      9.75096084875574      0.96732925528762
  H          12.95168426200878     10.02971733228275      3.11085994944194
  H          13.39589777726184     11.19240918340529      5.04289025179900
  H          13.95639982525022     12.39850741052125      6.95804685569763
  H          17.89840216289733     12.45880050062833      3.47046327977622
  H          16.46406503857093     11.08414298228959      2.03280726236106
  H          16.84562045262723     13.56070620779075      6.65157323492440
  H           7.16306536264872      8.90755959959267      0.96761156153933
  H           5.27149949917458      7.63374916888621      0.10267709128872
*