! B97-3c Opt Freq CPCM(Water)
! PrintMOs

* xyz 0 1
C  9.00048659737094780553 1.31885085261652124089 0.87661548707184544504
C  8.71221223242055131664 -0.06772587919818676139 0.72072498855670907858
C  10.30454897633804023371 1.75264528203727532052 0.72809861648862439498
C  11.34900309419075981054 0.87364872978119423319 0.40005114713733430643
C  11.03492217282227372266 -0.49430297427145436506 0.20648758653850704525
C  9.75262881262538350313 -0.94196963960988910891 0.36210586920716697490
H  10.49586010181581308132 2.80514113218231875280 0.86761436943732950233
H  9.49668007425696991675 -1.98095796540158519683 0.22770795549596156704
H  11.80513528132788181324 -1.19579380456846329217 -0.06657885584504036336
O  8.06658170300108423589 2.23536158703109899548 1.18216558393321480303
O  7.50722473242814203331 -0.59624872016297447708 0.89246265992488627017
C  12.66152191596130194284 1.40339466656387457100 0.26175600355122835561
C  13.81496552835633906398 0.71527698205844869594 0.01589250360972343026
H  12.75752262025857319827 2.47586729180631781588 0.38358710805312112857
C  15.05712976943362768623 1.40442710332943598850 -0.11918948253186353869
H  13.82532514163427705967 -0.35442481920561946795 -0.12519516130058588876
N  16.18894772571787044058 0.63588757596863187960 -0.29226982884344276936
O  15.16140580500782242268 2.65038476374465359342 -0.12019163660749693223
N  17.34186649133532043265 1.29552032925004012576 -0.39097107966265109980
C  18.53127801954091324887 0.83282104278201840586 -0.50057943379016067720
C  19.58443850413427966828 1.81318968284130832558 -0.58330403604289060571
H  18.77396802149124610537 -0.22586425916141908421 -0.46322829066035192680
C  19.27966041289045762142 3.11695021290370766209 -1.04795178799879162845
C  20.26658852047900083448 4.10907639159103599269 -0.98692871338923171542
C  21.49101121193858077163 3.81403431666782566367 -0.42784217526536821863
C  21.82872018603939778814 2.53571443282196895552 0.02318848958536627591
C  20.87502893961066163797 1.49307642627357450849 -0.10513233294180181210
H  22.24148935767367518679 4.58722436887176421294 -0.34828840135581784487
H  7.15427294260804202963 1.93538045571495676000 1.07362182813988060737
H  6.83569061288722767955 0.00660733735619521700 1.24493714385876264039
H  16.14040090469896782110 -0.37857950608354973276 -0.34909448985808977373
H  20.08123290542957661842 5.08468641926938769160 -1.40811722220885870982
H  18.48760466778030675528 3.23483562984650330208 -1.78595985752540542535
O  21.02426098602941806348 0.22250407312880604582 0.29504501340045791169
C  22.22533875799468461310 -0.53374803573738427431 0.08117742105895296711
C  22.66766046131294132238 -1.20074104524389513315 1.38257778380334395152
H  23.00668942342256428901 0.08484097904541387791 -0.35832875953782838963
H  21.95687225398786068808 -1.31205439981199356581 -0.64406198537236991619
C  23.79497117161896824200 -2.21254484035700915712 1.17062550626831196610
H  21.80077915904651675305 -1.71242469124102258959 1.80388180777889939321
H  22.98699487610375413738 -0.44845607279745774987 2.10702655273704353434
C  25.12924894132126496515 -1.57486999238422242797 0.78609042802625772595
H  23.49821011982595209133 -2.93099131402067270002 0.40429250501874519630
H  23.92771455301441818619 -2.76422097629585650225 2.10252916507659071144
C  26.25612605698613322147 -2.59932858772394359548 0.73852993150196988292
H  25.38495424121301269338 -0.79931830320389452016 1.51368173998429855764
H  25.04805915540305960576 -1.09379659067229839664 -0.19208482735147888731
C  27.59357031483856914633 -1.99633837404858027753 0.35581685162048626303
H  25.99786382429413578166 -3.39193479293246902273 0.02835483534301835862
H  26.34643447754699252528 -3.08783822963719067900 1.71421455940452038824
H  27.54436085051113991540 -1.52793444391015742490 -0.62669552980067244619
H  28.36446839159946620157 -2.76102645716530803455 0.33391006331822109532
H  27.89281432707863217502 -1.22841811311766657688 1.06857517347794805929
C  23.14876606430200567388 2.37089684482886609018 0.70999132560165700845
C  23.55251888691418216126 3.60204230475607412032 1.47172053862238216837
H  23.92994699495013222190 2.14215945168290433642 -0.02249562286250326656
H  23.09913471045991073538 1.53762738851121616435 1.41587876393943479236
C  24.75347854251551993343 4.15318355099577818379 1.40462100526338784512
H  22.79466647384171906765 4.00731267843690375230 2.12836014493125746938
H  25.52577409884964509956 3.76972206231446538283 0.75806862087271986717
H  25.01521353728626806401 5.00914199075975652420 2.00104199970682961052
*