! B97-3c Opt Freq CPCM(Water)
! PrintMOs

* xyz 0 1
C  9.98825447020746715054 5.19046852427597382729 1.15349610745168273951
C  9.42147556770074601218 3.95050308347198741998 0.74373947586396471632
C  11.34324236528388851752 5.39894377154623139603 0.97862116912360708199
C  12.17225143440222012714 4.43702217913643348624 0.38015646814146852872
C  11.58127144857343360229 3.22948249388552266481 -0.06398797221817935366
C  10.24460575339218060265 3.00207757455320312090 0.11456181006648445686
H  11.74835918319947403177 6.34056850192097165575 1.31462914188147883543
H  9.77997965940120650430 2.08390644765541566130 -0.20794932539411326022
H  12.18026957784961084030 2.47655654670853797583 -0.54790533088396653483
O  9.26961570199016371419 6.17233903871577904710 1.72743710363267677366
O  8.14417498249725291259 3.62966174250409157054 0.91851151460161928330
C  13.55678971839094160146 4.73197042790782784749 0.23464402804649137080
C  14.53225924217193387733 3.91333427239127917829 -0.25480471100434726184
H  13.87275567783152219192 5.71331576068208057961 0.56802533899817064800
C  15.88207940177422194949 4.36615572143612684641 -0.35999974209967738892
H  14.31782939974893764656 2.91930020878481455426 -0.61560749305695561251
N  16.82010513817870034359 3.45610566399118468439 -0.79182252440134703875
O  16.24303988279342547685 5.53840491167495141411 -0.10937826079441054228
N  18.07689959449211869469 3.89618230476230253956 -0.85552562469887249996
C  19.14995403107123905784 3.23726685830759697282 -1.11023278353782828276
C  20.37357357754431319563 3.98593928424573862301 -1.06056793143864735995
H  19.16259604949417294506 2.16595260473129780365 -1.29296266910481949530
C  20.32172066330448600979 5.40571599560176441202 -1.15569881082881198431
C  21.48650618970954440101 6.19075106582889223006 -0.95207819655483028054
C  22.70850849109126912140 5.53260475282294272859 -0.58999138363513248251
C  22.72620327943085172251 4.14080216783565724370 -0.55119298758825530093
C  21.59229409583916847737 3.37893401158250705762 -0.78790682875611528502
H  8.31328977440693961398 6.08376553135782405235 1.61942806538361638857
H  7.63610921586972057895 4.24793130525197515368 1.46445581101884303443
H  16.56944887189592208188 2.49768645092410368491 -1.02293566044822648031
H  19.58683402571638865197 5.86550731403633651695 -1.81429697522117239217
H  21.65890483915426045769 2.30389663433337688048 -0.73096278846442652721
O  23.76565383341445780729 6.30879493681019720697 -0.33589980595502755278
C  25.02674500710822158567 5.73605674721006408845 0.00370284237689958188
C  26.01411188602411783677 6.87811608093379867057 0.21983792879810046261
H  25.36899544090769609284 5.08776885435458936513 -0.81189127140366912361
H  24.92811472584955367893 5.13895659803010662614 0.91809324937540737199
C  27.40475695930624056018 6.35014640750946846026 0.57204688674803405579
H  25.64710567053136713866 7.51796924040703284930 1.02377510115339731556
H  26.06649162639621408744 7.47794159219729781540 -0.69013988277193583087
H  23.64656596206848249153 3.62978030497187109660 -0.32124678563861586156
O  21.31785303574367773649 7.48175113235022415381 -1.17453752622094165226
C  22.36112578122527949631 8.44346462966222155444 -1.16202785487720028357
H  22.78859318148090906675 8.55122818499313552820 -0.16419445058991130604
H  21.88630616505163573038 9.37639641604866369562 -1.46230208322673593813
H  23.15062346151652761250 8.18679572149272338777 -1.86922451264655165026
C  28.40124397359123165074 7.48775357381236794652 0.78383214740260342968
H  27.76048319684080567527 5.70239045868067684353 -0.23200617778517654277
H  27.34419373551002152567 5.74710170218386462437 1.48050239659163396233
C  29.79504623605581770107 6.98806134840414205911 1.13151063297051046597
H  28.04156521652858202742 8.14046066810400326119 1.58401539665180823846
H  28.45275718750731641649 8.09788428743007315802 -0.12213789618852266550
C  30.79564800502213017808 8.10579376046409372236 1.34217597469415950151
H  30.15567065460124140941 6.32438173403582659660 0.33737790912620124750
H  29.74789773757903788010 6.36894236587088258261 2.03466720769590114770
H  30.88988851861142848065 8.71917125307044216243 0.44637038068909912214
H  31.77410034418696582748 7.70369411563893358164 1.58878206168685709443
H  30.47913671376162980664 8.76587722556235604543 2.14942169809905347932
*