! B97-3c Opt Freq CPCM(Water)
! PrintMOs

* xyz 0 1
O  -0.01559764059331514643 0.05292570976533080007 -0.06261434436741515619
O  -3.76052629258239745624 0.71375782182423552769 -1.08425206786684413807
N  3.40306865124621582552 -0.62042667444896859585 -1.36984308948314725818
N  2.56707157737770952366 0.45424564484791074559 1.11370129124933625597
N  -1.04781995356851265200 1.01475192776947653606 1.69475418421902324084
N  -2.26057938043964012920 0.84387316155074887369 1.11024949607328515810
C  2.91420980601715706726 0.71016562940792571368 -1.31380868843656561928
C  2.82147600772662032753 -1.47673803797706404417 -0.39892635883912080930
C  3.12213465025682124221 1.31036257078081419536 0.12133259906010808449
C  3.02559462734574458054 -0.89123473439659317563 1.04251944126962658999
C  4.71573373582070054510 -0.89283464472006535129 -1.88869933976502490935
C  1.36976501897312852307 0.80078392041586399230 1.80162062887952889589
C  5.79971858462068645679 -0.52085401187727509154 -0.88786547753690769902
C  0.04645418350400551399 0.58089288264234573145 1.03624212812094596003
C  6.25627874381957482797 -1.46147895463758881185 0.03110429324106150570
C  6.35405156461099984710 0.75580501890431051049 -0.89836228441273713319
C  7.28226861864947849767 -1.13851696311483130408 0.90303281246485112010
C  7.38006425043215497084 1.07406094556444653421 -0.02452116156378981657
C  7.83640837053342931284 0.13212492352495541770 0.88443624154135092041
C  -3.33983822381595141238 1.14116013822244299902 1.74486471373962936937
C  -4.63718202378854993384 0.92849841627391349608 1.17107841838132031853
C  -6.02380948292745976858 0.10943278009750850854 -0.66573546118278836836
C  -4.80411304770933256236 0.58736077693234489683 -0.19084053570314660209
C  -6.11892836982255960976 -0.40751327165615047754 -2.07262582381747728633
C  -5.76440872224611222663 0.93124337759954234350 2.00683758243926124720
C  -7.10686985292022388450 0.08605702392486228036 0.20623484991958981882
C  -6.98802631054599832083 0.52496091976584058347 1.51957338196599844871
C  -5.43100042628228241171 -1.74135276576591557784 -2.16092377566285431811
C  -6.00255190874245503352 -2.87332779208304778251 -2.51363389221445343580
H  3.42050838995168238199 1.34035176557106794348 -2.04332448804709487789
H  1.84042566078858449430 0.70628696882923669431 -1.51980944220538938261
H  3.25950432177676363565 -2.47232253610833785373 -0.44784854728035894400
H  1.74557453536353657242 -1.54305835598638729778 -0.57922360240102477302
H  4.20394954201258741477 1.39278971389641981204 0.27902218776509823961
H  2.67370475044622457617 2.30162773991466940160 0.16728426146782837680
H  2.50493125376928071901 -1.51889852532552072084 1.76419970101898360149
H  4.10216140863161093932 -0.91656613886513360612 1.24874298889635504395
H  4.84998545224294286271 -0.32130488701528397977 -2.80872508159177680653
H  4.78046202969605715793 -1.95605979220104542193 -2.12631362550793001631
H  1.31128693184113931380 0.21222880553785244961 2.72364432444950432810
H  1.41473809928270388703 1.85953413500779940470 2.07909144977395721199
H  5.84925229520884126799 -2.46204412438952324749 0.03382096721314603593
H  6.02311964348248274348 1.48730774480915295399 -1.62099907849458801934
H  -0.99108366630549882270 1.40570993795240628543 2.63586783193116280799
H  7.65269755355803127372 -1.88336036895727887419 1.58979250276568562228
H  7.82690652366212180624 2.05517921880614284902 -0.06156422130461516873
H  8.62584198535844670630 0.38649361673563475961 1.57411894752793224406
H  -3.30152438140971682401 1.51562468502099934042 2.77013450828595075848
H  -5.62692685731287856044 0.29190337949164624209 -2.75358042844439898644
H  -7.16209611695297976297 -0.51266150466883386727 -2.36671358545493459857
H  -5.65793730379034887079 1.22196672040279086247 3.04027725307284990564
H  -8.06197320189036581439 -0.26340670675246957710 -0.15434482876050686917
H  -7.85089482169507846265 0.52247231083379208627 2.16607542519469697950
H  -4.36391619677440889546 -1.72610659570347779734 -1.90272695784512935191
H  -3.28478467132318607824 1.53571126095746324225 -0.90169532671235430588
H  -5.46362224604858415233 -3.80375391225902603765 -2.55447341761745239097
H  -7.03999699056853422974 -2.91689738379516461109 -2.80415993060174528750
*