! B97-3c Freq CPCM(Water)
! PrintMOs

* xyz 2 1
Zn         0.73102        0.91499        0.00000
*